35306 40516 
35168 40563 
38435 39687 
39325 39163 
38057 39885 
38137 39838 
38310 39756 
38531 39683 
39073 39321 
39218 39247 
38596 39642 
38820 39504 
37627 40045 
37429 40202 
36809 40257 
37817 40011 
36052 40485 
36132 40438 
36276 40347 
36668 40319 
36733 40278 
36344 40335 
36221 40376 
36632 40326 
36748 40272 
37069 40225 
36871 40231 
36359 40329 
